240 5
10 10 10 10 10 

0 0 0 0 0 0 5 2 14 26 38 50 
0 0 0 0 0 0 4 3 5 6 7 
10 0 1 0 0 0 3 11 10 4 
10 0 2 0 0 0 3 12 9 8 
9 0 4 0 0 0 3 11 9 8 
4 0 2 0 0 0 1 10 
1 0 3 0 0 0 1 8 
1 0 3 0 0 0 1 13 
2 0 2 0 0 0 1 13 
1 0 6 0 0 0 1 13 
4 0 1 0 0 0 1 13 
5 0 1 0 0 0 1 13 
0 0 0 0 0 0 1 62 
0 0 0 0 0 0 5 15 16 17 18 19 
2 0 0 1 0 0 2 21 20 
4 0 0 1 0 0 2 21 20 
6 0 0 2 0 0 2 21 20 
4 0 0 3 0 0 2 21 20 
4 0 0 2 0 0 2 21 20 
3 0 0 5 0 0 2 24 22 
10 0 0 2 0 0 2 23 22 
5 0 0 2 0 0 1 25 
5 0 0 2 0 0 1 25 
5 0 0 5 0 0 1 25 
0 0 0 0 0 0 1 62 
0 0 0 0 0 0 3 27 30 31 
5 0 0 0 0 1 4 36 33 29 28 
7 0 0 0 0 4 2 35 32 
4 0 0 0 0 1 1 34 
2 0 0 0 0 1 1 33 
2 0 0 0 0 4 1 32 
7 0 0 0 0 3 1 37 
3 0 0 0 0 2 1 37 
5 0 0 0 0 4 1 37 
2 0 0 0 0 2 1 37 
10 0 0 0 0 3 1 37 
0 0 0 0 0 0 1 62 
0 0 0 0 0 0 5 39 40 41 42 43 
6 0 0 0 1 0 4 48 46 45 44 
8 0 0 0 3 0 2 48 44 
6 0 0 0 3 0 2 45 44 
5 0 0 0 2 0 1 45 
4 0 0 0 3 0 1 44 
4 0 0 0 2 0 1 47 
10 0 0 0 2 0 1 47 
2 0 0 0 2 0 1 47 
1 0 0 0 3 0 1 49 
10 0 0 0 4 0 1 49 
0 0 0 0 0 0 1 62 
0 0 0 0 0 0 3 51 52 60 
3 0 0 1 0 0 4 59 58 54 53 
9 0 0 2 0 0 2 55 53 
4 0 0 2 0 0 2 57 56 
7 0 0 1 0 0 1 55 
4 0 0 3 0 0 1 61 
1 0 0 3 0 0 1 61 
7 0 0 3 0 0 1 61 
2 0 0 5 0 0 1 61 
4 0 0 3 0 0 1 61 
1 0 0 2 0 0 1 61 
0 0 0 0 0 0 1 62 
0 0 0 0 0 0 4 63 95 107 139 
0 0 0 0 0 0 6 64 65 66 67 70 93 
1 0 1 1 0 1 5 77 75 74 71 68 
10 0 1 1 0 3 4 92 74 71 68 
6 0 1 6 0 2 3 71 69 68 
10 0 4 3 0 4 3 76 74 68 
4 0 2 5 0 1 3 84 80 72 
8 0 5 1 0 4 4 90 77 75 73 
8 0 6 3 0 6 4 91 77 75 73 
8 0 4 2 0 2 2 84 73 
8 0 2 4 0 3 1 73 
9 0 3 3 0 1 5 89 88 87 83 79 
10 0 1 4 0 3 3 86 84 78 
4 0 4 2 0 3 4 88 87 86 79 
5 0 2 3 0 2 4 89 88 83 81 
3 0 1 2 0 3 3 87 83 79 
3 0 3 2 0 4 1 79 
1 0 2 1 0 1 1 81 
10 0 4 2 0 1 2 90 86 
10 0 2 2 0 2 1 82 
6 0 2 3 0 1 1 85 
3 0 2 1 0 5 1 86 
4 0 2 3 0 2 1 90 
9 0 3 2 0 3 1 94 
3 0 1 2 0 1 1 94 
9 0 3 1 0 2 1 94 
6 0 2 1 0 2 1 94 
10 0 2 1 0 3 1 94 
1 0 4 3 0 3 1 94 
9 0 2 5 0 2 1 94 
8 0 2 2 0 2 1 94 
3 0 2 4 0 3 1 94 
0 0 0 0 0 0 1 229 
0 0 0 0 0 0 6 96 101 102 103 104 105 
4 0 0 1 0 0 3 100 99 97 
9 0 0 4 0 0 1 98 
5 0 0 3 0 0 1 106 
10 0 0 2 0 0 1 106 
2 0 0 3 0 0 1 106 
8 0 0 1 0 0 1 106 
10 0 0 1 0 0 1 106 
9 0 0 4 0 0 1 106 
2 0 0 4 0 0 1 106 
4 0 0 2 0 0 1 106 
0 0 0 0 0 0 2 171 183 
0 0 0 0 0 0 6 108 109 110 111 114 137 
5 1 1 0 0 1 4 118 115 113 112 
3 1 3 0 0 2 4 136 118 115 112 
5 3 3 0 0 2 3 115 113 112 
9 1 1 0 0 2 3 121 118 112 
7 2 3 0 0 4 3 128 124 116 
4 4 6 0 0 2 4 134 120 119 117 
5 2 1 0 0 1 4 135 120 119 117 
10 2 2 0 0 4 2 128 117 
10 1 2 0 0 2 1 117 
10 7 2 0 0 2 5 133 132 131 127 123 
7 3 4 0 0 2 4 132 130 128 122 
3 2 5 0 0 2 4 132 131 127 123 
2 2 1 0 0 5 4 132 131 130 123 
6 1 1 0 0 6 4 133 131 127 125 
2 3 2 0 0 3 1 123 
10 3 1 0 0 7 1 125 
1 2 2 0 0 1 2 134 130 
1 2 1 0 0 1 1 126 
1 3 4 0 0 2 1 129 
10 2 3 0 0 2 1 130 
9 4 3 0 0 1 1 134 
9 4 3 0 0 2 1 138 
7 2 3 0 0 3 1 138 
5 3 3 0 0 2 1 138 
7 3 1 0 0 3 1 138 
10 2 3 0 0 4 1 138 
10 4 1 0 0 2 1 138 
7 3 2 0 0 1 1 138 
4 2 2 0 0 2 1 138 
3 1 6 0 0 2 1 138 
0 0 0 0 0 0 1 229 
0 0 0 0 0 0 6 140 141 142 143 144 169 
4 1 0 1 0 1 5 151 148 147 146 145 
1 2 0 3 0 3 5 168 149 148 147 145 
7 7 0 1 0 2 4 151 148 147 145 
4 2 0 4 0 1 3 147 146 145 
1 3 0 1 0 2 2 167 146 
2 3 0 2 0 3 3 160 154 150 
6 2 0 3 0 1 3 166 153 149 
8 4 0 1 0 2 2 160 152 
9 3 0 2 0 1 5 165 163 160 159 155 
9 2 0 2 0 3 1 152 
8 2 0 1 0 3 1 152 
10 4 0 1 0 2 1 152 
10 4 0 1 0 1 5 165 164 163 159 156 
5 1 0 5 0 3 5 165 164 163 162 156 
2 3 0 7 0 2 5 166 164 163 162 158 
1 2 0 3 0 3 2 166 156 
1 2 0 5 0 1 1 157 
3 4 0 3 0 3 1 158 
7 1 0 3 0 6 1 161 
6 2 0 1 0 3 1 162 
7 2 0 2 0 3 1 166 
5 1 0 3 0 3 1 170 
10 1 0 2 0 1 1 170 
8 1 0 3 0 7 1 170 
5 4 0 5 0 3 1 170 
2 2 0 3 0 4 1 170 
3 5 0 2 0 2 1 170 
7 1 0 1 0 2 1 170 
3 2 0 2 0 1 1 170 
7 2 0 2 0 3 1 170 
0 0 0 0 0 0 1 229 
0 0 0 0 0 0 5 172 173 174 175 176 
4 1 0 0 0 0 3 181 178 177 
2 3 0 0 0 0 3 181 178 177 
2 2 0 0 0 0 3 181 180 178 
5 2 0 0 0 0 2 179 177 
8 3 0 0 0 0 2 180 179 
1 4 0 0 0 0 1 180 
8 2 0 0 0 0 1 179 
5 1 0 0 0 0 1 182 
2 5 0 0 0 0 1 182 
2 2 0 0 0 0 1 182 
0 0 0 0 0 0 2 205 217 
0 0 0 0 0 0 13 184 186 187 190 195 196 197 198 199 200 201 202 203 
8 0 0 0 1 1 2 194 185 
1 0 0 0 1 3 2 192 188 
2 0 0 0 2 2 2 193 192 
8 0 0 0 4 5 2 192 191 
8 0 0 0 2 1 1 189 
1 0 0 0 1 3 1 191 
1 0 0 0 6 3 1 191 
10 0 0 0 2 2 1 204 
7 0 0 0 4 1 1 204 
5 0 0 0 3 1 1 204 
3 0 0 0 2 4 1 204 
6 0 0 0 2 2 1 204 
7 0 0 0 2 2 1 204 
2 0 0 0 2 5 1 204 
10 0 0 0 4 4 1 204 
8 0 0 0 2 2 1 204 
4 0 0 0 4 2 1 204 
2 0 0 0 2 2 1 204 
2 0 0 0 2 3 1 204 
3 0 0 0 2 2 1 204 
0 0 0 0 0 0 1 229 
0 0 0 0 0 0 6 206 208 209 211 214 215 
7 0 0 0 1 0 1 207 
7 0 0 0 4 0 2 213 212 
7 0 0 0 1 0 1 210 
9 0 0 0 4 0 1 210 
8 0 0 0 3 0 1 212 
8 0 0 0 2 0 1 212 
6 0 0 0 2 0 1 216 
9 0 0 0 4 0 1 216 
9 0 0 0 3 0 1 216 
9 0 0 0 1 0 1 216 
0 0 0 0 0 0 1 229 
0 0 0 0 0 0 5 218 219 220 222 227 
10 1 0 0 0 0 3 226 224 223 
4 4 0 0 0 0 2 224 223 
3 3 0 0 0 0 1 221 
4 3 0 0 0 0 1 225 
8 2 0 0 0 0 1 223 
7 3 0 0 0 0 1 228 
7 3 0 0 0 0 1 228 
10 1 0 0 0 0 1 228 
2 3 0 0 0 0 1 228 
10 2 0 0 0 0 1 228 
0 0 0 0 0 0 1 229 
0 0 0 0 0 0 6 230 231 233 237 238 239 
1 0 0 1 0 0 3 236 235 232 
7 0 0 2 0 0 2 236 234 
2 0 0 3 0 0 1 234 
2 0 0 2 0 0 1 235 
10 0 0 3 0 0 1 240 
3 0 0 4 0 0 1 240 
8 0 0 2 0 0 1 240 
10 0 0 3 0 0 1 240 
8 0 0 3 0 0 1 240 
5 0 0 2 0 0 1 240 
0 0 0 0 0 0 0 
